NAME          
ROWS
 N  OBJ
 L  c1
 L  c2
 L  c3
 L  c4
COLUMNS
    MARKER    'MARKER'                 'INTORG'
    x[1]      c1        844
    x[1]      c2        967
    x[1]      c3        586
    x[1]      c4        197
    x[1]      OBJ       -549
    x[2]      c1        84
    x[2]      c2        147
    x[2]      c3        367
    x[2]      c4        704
    x[2]      OBJ       -699
    x[3]      c1        249
    x[3]      c2        240
    x[3]      c3        601
    x[3]      c4        458
    x[3]      OBJ       -618
    x[4]      c1        229
    x[4]      c2        378
    x[4]      c3        814
    x[4]      c4        493
    x[4]      OBJ       -253
    x[5]      c1        196
    x[5]      c2        997
    x[5]      c3        879
    x[5]      c4        264
    x[5]      OBJ       -794
    x[6]      c1        556
    x[6]      c2        226
    x[6]      c3        963
    x[6]      c4        593
    x[6]      OBJ       -381
    x[7]      c1        592
    x[7]      c2        811
    x[7]      c3        945
    x[7]      c4        201
    x[7]      OBJ       -564
    x[8]      c1        104
    x[8]      c2        474
    x[8]      c3        447
    x[8]      c4        357
    x[8]      OBJ       -844
    x[9]      c1        902
    x[9]      c2        33
    x[9]      c3        908
    x[9]      c4        400
    x[9]      OBJ       -926
    x[10]     c1        721
    x[10]     c2        678
    x[10]     c3        213
    x[10]     c4        138
    x[10]     OBJ       -168
    x[11]     c1        99
    x[11]     c2        717
    x[11]     c3        223
    x[11]     c4        71
    x[11]     OBJ       -548
    x[12]     c1        219
    x[12]     c2        430
    x[12]     c3        736
    x[12]     c4        927
    x[12]     OBJ       -923
    x[13]     c1        514
    x[13]     c2        336
    x[13]     c3        694
    x[13]     c4        289
    x[13]     OBJ       -969
    x[14]     c1        139
    x[14]     c2        78
    x[14]     c3        767
    x[14]     c4        489
    x[14]     OBJ       -742
    x[15]     c1        37
    x[15]     c2        192
    x[15]     c3        308
    x[15]     c4        90
    x[15]     OBJ       -328
    x[16]     c1        162
    x[16]     c2        71
    x[16]     c3        308
    x[16]     c4        381
    x[16]     OBJ       -327
    x[17]     c1        70
    x[17]     c2        28
    x[17]     c3        285
    x[17]     c4        580
    x[17]     OBJ       -578
    x[18]     c1        365
    x[18]     c2        669
    x[18]     c3        211
    x[18]     c4        201
    x[18]     OBJ       -36
    x[19]     c1        207
    x[19]     c2        114
    x[19]     c3        920
    x[19]     c4        942
    x[19]     OBJ       -676
    x[20]     c1        50
    x[20]     c2        15
    x[20]     c3        836
    x[20]     c4        951
    x[20]     OBJ       -843
    x[21]     c1        925
    x[21]     c2        409
    x[21]     c3        254
    x[21]     c4        813
    x[21]     OBJ       -763
    x[22]     c1        806
    x[22]     c2        489
    x[22]     c3        25
    x[22]     c4        504
    x[22]     OBJ       -75
    x[23]     c1        65
    x[23]     c2        4
    x[23]     c3        773
    x[23]     c4        44
    x[23]     OBJ       -128
    x[24]     c1        404
    x[24]     c2        851
    x[24]     c3        487
    x[24]     c4        517
    x[24]     OBJ       -668
    x[25]     c1        479
    x[25]     c2        604
    x[25]     c3        410
    x[25]     c4        41
    x[25]     OBJ       -364
    x[26]     c1        709
    x[26]     c2        405
    x[26]     c3        895
    x[26]     c4        919
    x[26]     OBJ       -480
    x[27]     c1        38
    x[27]     c2        199
    x[27]     c3        580
    x[27]     c4        890
    x[27]     OBJ       -459
    x[28]     c1        695
    x[28]     c2        551
    x[28]     c3        69
    x[28]     c4        769
    x[28]     OBJ       -945
    x[29]     c1        256
    x[29]     c2        554
    x[29]     c3        151
    x[29]     c4        758
    x[29]     OBJ       -343
    x[30]     c1        981
    x[30]     c2        801
    x[30]     c3        616
    x[30]     c4        893
    x[30]     OBJ       -71
    x[31]     c1        305
    x[31]     c2        599
    x[31]     c3        632
    x[31]     c4        882
    x[31]     OBJ       -45
    x[32]     c1        891
    x[32]     c2        179
    x[32]     c3        377
    x[32]     c4        472
    x[32]     OBJ       -820
    x[33]     c1        143
    x[33]     c2        271
    x[33]     c3        643
    x[33]     c4        803
    x[33]     OBJ       -514
    x[34]     c1        998
    x[34]     c2        101
    x[34]     c3        419
    x[34]     c4        588
    x[34]     OBJ       -808
    x[35]     c1        367
    x[35]     c2        482
    x[35]     c3        914
    x[35]     c4        175
    x[35]     OBJ       -823
    x[36]     c1        128
    x[36]     c2        731
    x[36]     c3        75
    x[36]     c4        264
    x[36]     OBJ       -256
    x[37]     c1        696
    x[37]     c2        605
    x[37]     c3        59
    x[37]     c4        572
    x[37]     OBJ       -46
    x[38]     c1        201
    x[38]     c2        741
    x[38]     c3        823
    x[38]     c4        336
    x[38]     OBJ       -731
    x[39]     c1        217
    x[39]     c2        315
    x[39]     c3        536
    x[39]     c4        537
    x[39]     OBJ       -478
    x[40]     c1        854
    x[40]     c2        410
    x[40]     c3        496
    x[40]     c4        521
    x[40]     OBJ       -981
RHS
    rhs       c1        8248
    rhs       c2        8451
    rhs       c3        10622
    rhs       c4        10012
RANGES
BOUNDS
 BV bounds    x[1]
 BV bounds    x[2]
 BV bounds    x[3]
 BV bounds    x[4]
 BV bounds    x[5]
 BV bounds    x[6]
 BV bounds    x[7]
 BV bounds    x[8]
 BV bounds    x[9]
 BV bounds    x[10]
 BV bounds    x[11]
 BV bounds    x[12]
 BV bounds    x[13]
 BV bounds    x[14]
 BV bounds    x[15]
 BV bounds    x[16]
 BV bounds    x[17]
 BV bounds    x[18]
 BV bounds    x[19]
 BV bounds    x[20]
 BV bounds    x[21]
 BV bounds    x[22]
 BV bounds    x[23]
 BV bounds    x[24]
 BV bounds    x[25]
 BV bounds    x[26]
 BV bounds    x[27]
 BV bounds    x[28]
 BV bounds    x[29]
 BV bounds    x[30]
 BV bounds    x[31]
 BV bounds    x[32]
 BV bounds    x[33]
 BV bounds    x[34]
 BV bounds    x[35]
 BV bounds    x[36]
 BV bounds    x[37]
 BV bounds    x[38]
 BV bounds    x[39]
 BV bounds    x[40]
ENDATA
